* ENCODING=ISO-8859-1
NAME          CPLEX
ROWS
 N  obj1    
 G  c1      
 G  c2      
 G  c3      
 G  c4      
 G  c5      
 G  c6      
 G  c7      
 G  c8      
 G  c9      
 G  c10     
 G  c11     
 G  c12     
 G  c13     
 G  c14     
 G  c15     
 G  c16     
 G  c17     
 G  c18     
 G  c19     
 G  c20     
 G  c21     
 G  c22     
 G  c23     
 G  c24     
 G  c25     
 G  c26     
 G  c27     
 G  c28     
 G  c29     
 G  c30     
COLUMNS
    MARK0000  'MARKER'                 'INTORG'
    x1        obj1                            1
    x1        c1                            899
    x1        c2                            647
    x1        c11                           319
    x1        c15                           630
    x1        c18                           135
    x1        c22                           447
    x1        c30                           103
    x2        obj1                            1
    x2        c1                            426
    x2        c9                            207
    x2        c25                           612
    x3        obj1                            1
    x3        c20                           699
    x3        c21                           633
    x3        c22                           482
    x3        c23                           409
    x3        c25                           827
    x4        obj1                            1
    x4        c3                            825
    x4        c8                            462
    x4        c26                           347
    x5        obj1                            1
    x5        c9                            349
    x5        c17                           169
    x6        obj1                            1
    x6        c1                            842
    x6        c3                            319
    x6        c5                            863
    x6        c6                            689
    x6        c23                           670
    x6        c24                           140
    x7        obj1                            1
    x7        c5                            548
    x7        c13                           327
    x7        c14                           818
    x7        c30                           619
    x8        obj1                            1
    x9        obj1                            1
    x9        c9                            158
    x9        c26                           778
    x10       obj1                            1
    x10       c3                            480
    x10       c13                           954
    x10       c27                           280
    x11       obj1                            1
    x11       c5                            690
    x11       c13                           570
    x11       c15                           324
    x11       c17                           707
    x11       c24                           438
    x12       obj1                            1
    x12       c8                            513
    x12       c24                           114
    x12       c30                           406
    x13       obj1                            1
    x13       c1                            459
    x13       c7                            892
    x13       c13                           984
    x14       obj1                            1
    x14       c3                            887
    x15       obj1                            1
    x15       c1                            852
    x15       c2                            175
    x15       c4                            215
    x15       c12                           118
    x15       c26                           899
    x16       obj1                            1
    x16       c2                            174
    x16       c4                            167
    x16       c17                           391
    x16       c25                           889
    x17       obj1                            1
    x17       c6                            187
    x17       c29                           836
    x18       obj1                            1
    x18       c5                            119
    x18       c18                           126
    x19       obj1                            1
    x19       c24                           931
    x20       obj1                            1
    x20       c6                            220
    x20       c14                           834
    x20       c21                           727
    x20       c27                           882
    x21       obj1                            1
    x21       c1                            586
    x21       c16                           559
    x22       obj1                            1
    x22       c19                           804
    x22       c26                           264
    x23       obj1                            1
    x24       obj1                            1
    x24       c4                            957
    x24       c13                           774
    x24       c15                           945
    x24       c18                           150
    x24       c21                           152
    x25       obj1                            1
    x25       c6                            810
    x25       c27                           233
    x25       c29                           761
    x26       obj1                            1
    x26       c26                           583
    x26       c30                           706
    x27       obj1                            1
    x27       c1                            284
    x27       c2                            540
    x27       c4                            208
    x27       c18                           251
    x27       c24                           329
    x28       obj1                            1
    x28       c6                            801
    x28       c18                           349
    x28       c20                           689
    x28       c22                           591
    x28       c25                           434
    x29       obj1                            1
    x29       c3                            512
    x29       c12                           176
    x29       c15                           534
    x29       c22                           622
    x29       c30                           446
    x30       obj1                            1
    x30       c4                            250
    x30       c7                            310
    x30       c15                           576
    x30       c27                           504
    x30       c28                           868
    x31       obj1                            1
    x31       c6                            714
    x31       c14                           750
    x32       obj1                            1
    x32       c24                           123
    x33       obj1                            1
    x33       c6                            760
    x33       c9                            855
    x33       c18                           198
    x33       c21                           414
    x33       c24                           272
    x34       obj1                            1
    x34       c7                            697
    x34       c18                           360
    x35       obj1                            1
    x35       c11                           819
    x36       obj1                            1
    x36       c15                           984
    x36       c19                           152
    x37       obj1                            1
    x37       c12                           897
    x37       c28                           171
    x38       obj1                            1
    x38       c7                            703
    x38       c14                           643
    x38       c22                           742
    x38       c23                           729
    x39       obj1                            1
    x39       c4                            304
    x39       c17                           687
    x40       obj1                            1
    x40       c24                           888
    x40       c27                           323
    x41       obj1                            1
    x41       c7                            974
    x41       c15                           429
    x42       obj1                            1
    x42       c2                            610
    x43       obj1                            1
    x43       c9                            788
    x44       obj1                            1
    x44       c14                           179
    x45       obj1                            1
    x45       c2                            661
    x45       c19                           148
    x46       obj1                            1
    x46       c2                            267
    x46       c4                            556
    x46       c21                           575
    x47       obj1                            1
    x47       c27                           332
    x47       c28                           623
    x48       obj1                            1
    x48       c4                            774
    x48       c6                            918
    x48       c22                           111
    x48       c24                           800
    x48       c27                           472
    x49       obj1                            1
    x49       c2                            265
    x49       c3                            241
    x49       c10                           541
    x49       c17                           285
    x49       c20                           378
    x49       c25                           848
    x50       obj1                            1
    x50       c3                            360
    x50       c5                            915
    x50       c30                           340
    x51       obj1                            1
    x51       c20                           259
    x51       c22                           701
    x52       obj1                            1
    x52       c23                           478
    x53       obj1                            1
    x53       c8                            243
    x53       c20                           285
    x53       c29                           791
    x54       obj1                            1
    x54       c9                            160
    x54       c10                           517
    x54       c16                           855
    x54       c22                           292
    x55       obj1                            1
    x55       c6                            659
    x55       c16                           323
    x55       c17                           447
    x55       c26                           176
    x55       c27                           138
    x56       obj1                            1
    x56       c1                            337
    x56       c20                           246
    x56       c25                           612
    x57       obj1                            1
    x57       c8                            573
    x57       c18                           488
    x57       c27                           964
    x58       obj1                            1
    x58       c3                            443
    x59       obj1                            1
    x59       c2                            500
    x59       c10                           503
    x59       c11                           564
    x59       c20                           691
    x59       c28                           563
    x59       c29                           643
    x60       obj1                            1
    x60       c9                            813
    x60       c12                           854
    x60       c15                           106
    MARK0001  'MARKER'                 'INTEND'
RHS
    rhs       c1                           2343
    rhs       c2                           1920
    rhs       c3                           2034
    rhs       c4                           1716
    rhs       c5                           1568
    rhs       c6                           2879
    rhs       c7                           1788
    rhs       c8                            896
    rhs       c9                           1665
    rhs       c10                           781
    rhs       c11                           851
    rhs       c12                          1023
    rhs       c13                          1805
    rhs       c14                          1612
    rhs       c15                          2264
    rhs       c16                           869
    rhs       c17                          1343
    rhs       c18                          1029
    rhs       c19                           552
    rhs       c20                          1624
    rhs       c21                          1251
    rhs       c22                          1994
    rhs       c23                          1143
    rhs       c24                          2018
    rhs       c25                          2111
    rhs       c26                          1524
    rhs       c27                          2064
    rhs       c28                          1113
    rhs       c29                          1516
    rhs       c30                          1310
BOUNDS
 LI bnd       x1        0
 LI bnd       x2        0
 LI bnd       x3        0
 LI bnd       x4        0
 LI bnd       x5        0
 LI bnd       x6        0
 LI bnd       x7        0
 LI bnd       x8        0
 LI bnd       x9        0
 LI bnd       x10       0
 LI bnd       x11       0
 LI bnd       x12       0
 LI bnd       x13       0
 LI bnd       x14       0
 LI bnd       x15       0
 LI bnd       x16       0
 LI bnd       x17       0
 LI bnd       x18       0
 LI bnd       x19       0
 LI bnd       x20       0
 LI bnd       x21       0
 LI bnd       x22       0
 LI bnd       x23       0
 LI bnd       x24       0
 LI bnd       x25       0
 LI bnd       x26       0
 LI bnd       x27       0
 LI bnd       x28       0
 LI bnd       x29       0
 LI bnd       x30       0
 LI bnd       x31       0
 LI bnd       x32       0
 LI bnd       x33       0
 LI bnd       x34       0
 LI bnd       x35       0
 LI bnd       x36       0
 LI bnd       x37       0
 LI bnd       x38       0
 LI bnd       x39       0
 LI bnd       x40       0
 LI bnd       x41       0
 LI bnd       x42       0
 LI bnd       x43       0
 LI bnd       x44       0
 LI bnd       x45       0
 LI bnd       x46       0
 LI bnd       x47       0
 LI bnd       x48       0
 LI bnd       x49       0
 LI bnd       x50       0
 LI bnd       x51       0
 LI bnd       x52       0
 LI bnd       x53       0
 LI bnd       x54       0
 LI bnd       x55       0
 LI bnd       x56       0
 LI bnd       x57       0
 LI bnd       x58       0
 LI bnd       x59       0
 LI bnd       x60       0
ENDATA
